100
50 50
1 40 288
2 40 706
3 40 805
4 39 6
5 39 972
6 38 734
7 37 351
8 37 699
9 37 891
10 36 694
11 36 276
12 36 235
13 35 653
14 34 162
15 34 281
16 34 60
17 33 812
18 33 830
19 33 987
20 33 258
21 32 8
22 32 525
23 32 849
24 32 557
25 32 975
26 32 581
27 30 358
28 30 18
29 30 916
30 30 151
31 30 615
32 29 439
33 29 560
34 29 115
35 29 245
36 29 503
37 28 935
38 28 543
39 27 92
40 27 190
41 27 339
42 27 208
43 27 336
44 26 212
45 26 733
46 26 178
47 25 789
48 24 700
49 24 926
50 23 992
51 23 718
52 23 680
53 23 67
54 22 948
55 22 9
56 21 589
57 21 784
58 21 124
59 21 417
60 20 250
61 19 849
62 19 966
63 19 593
64 19 720
65 19 760
66 18 189
67 18 919
68 18 800
69 17 291
70 16 378
71 16 439
72 15 612
73 14 362
74 14 264
75 14 60
76 14 383
77 14 753
78 13 712
79 13 22
80 12 53
81 11 758
82 11 99
83 11 971
84 10 116
85 10 24
86 10 267
87 9 759
88 9 901
89 8 69
90 8 558
91 7 860
92 7 897
93 6 309
94 6 157
95 6 283
96 6 562
97 6 661
98 6 47
99 5 483
100 5 341
